language Essence 1.3

letting pos be
        function((1, 1) --> 1, (1, 2) --> 3, (2, 1) --> 2, (2, 2) --> 5, (3, 1) --> 4, (3, 2) --> 8, (4, 1) --> 14,
                 (4, 2) --> 19, (5, 1) --> 12, (5, 2) --> 18, (6, 1) --> 16, (6, 2) --> 23, (7, 1) --> 13,
                 (7, 2) --> 21, (8, 1) --> 6, (8, 2) --> 15, (9, 1) --> 7, (9, 2) --> 17, (10, 1) --> 9, (10, 2) --> 20,
                 (11, 1) --> 10, (11, 2) --> 22, (12, 1) --> 11, (12, 2) --> 24)
letting seq be sequence(1, 2, 1, 3, 2, 8, 9, 3, 10, 11, 12, 5, 7, 4, 8, 6, 9, 5, 4, 10, 7, 11, 6, 12)
